m = 6; % number of couriers
n = 8; % number of packages

l = [14, 11, 22, 21, 16, 12]; % maximum carriable weight per courier
s = [6, 9, 12, 6, 4, 11, 6, 12]; % weight of each package

D = % distance matrix 
	 [| 15, 16, 6, 7, 9, 7, 14, 4, 12
	 | 13, 10, 16, 13, 9, 6, 10, 12, 8
	 | 16, 5, 12, 13, 10, 9, 7, 5, 4
	 | 10, 7, 5, 5, 14, 9, 16, 10, 9
	 | 12, 16, 10, 6, 7, 13, 8, 5, 15
	 | 15, 9, 13, 7, 8, 4, 6, 16, 5
	 | 16, 15, 14, 14, 10, 13, 5, 7, 6
	 | 4, 9, 16, 16, 4, 15, 12, 10, 7
	 | 14, 13, 15, 13, 14, 12, 7, 7, 13
	 |];